;; translated from ./bv/modulus_safe.c.vmt
;; original benchmark available at: https://es-static.fbk.eu/people/griggio/ic3ia/index.html
;; author: Alberto Griggio <griggio@fbk.eu>
(set-logic HORN)
(declare-fun state (Bool Bool Bool Bool (_ BitVec 32) (_ BitVec 32) (_ BitVec 32) (_ BitVec 32) (_ BitVec 32) (_ BitVec 32) (_ BitVec 32)) Bool)
(assert (forall ((|.PC.0| Bool) (|.PC.0.next| Bool) (|.PC.1.next| Bool) (|.PC.2.next| Bool) (|.PC.3.next| Bool) (|s__4$main| (_ BitVec 32)) (|n__2$main| (_ BitVec 32)) (|n__2$main.next| (_ BitVec 32)) (|d__6$main| (_ BitVec 32)) (|m__8$main| (_ BitVec 32)) (|m__8$main.next| (_ BitVec 32)) (|s__4$main.next| (_ BitVec 32)) (|__RET__$main.next| (_ BitVec 32)) (|__RET__$main| (_ BitVec 32)) (|d__6$main.next| (_ BitVec 32)) (|__INLINE_TEMP__0$main.next| (_ BitVec 32)) (|__INLINE_TEMP__0$main| (_ BitVec 32)) (|cond__11$main.next| (_ BitVec 32)) (|cond__11$main| (_ BitVec 32)) (|__NONDET_INLINE_INIT__5__6$main#3| (_ BitVec 32)) (|__NONDET_INLINE_INIT__3__5$main#2| (_ BitVec 32)) (|__NONDET_INLINE_INIT__5__6$main#1| (_ BitVec 32)) (|__NONDET_INLINE_INIT__3__5$main#0| (_ BitVec 32)) (|.PC.3| Bool) (|.PC.2| Bool) (|.PC.1| Bool)) (=> (let ((.def_18 (not .PC.3)))
(let ((.def_15 (not .PC.2)))
(let ((.def_12 (not .PC.1)))
(let ((.def_10 (not .PC.0)))
(let ((.def_13 (and .def_10 .def_12)))
(let ((.def_16 (and .def_13 .def_15)))
(let ((.def_19 (and .def_16 .def_18)))
.def_19))))))) (state |.PC.0| |.PC.1| |.PC.2| |.PC.3| |__RET__$main| |__INLINE_TEMP__0$main| |cond__11$main| |m__8$main| |d__6$main| |n__2$main| |s__4$main|))))
(assert (forall ((|.PC.0| Bool) (|.PC.0.next| Bool) (|.PC.1.next| Bool) (|.PC.2.next| Bool) (|.PC.3.next| Bool) (|s__4$main| (_ BitVec 32)) (|n__2$main| (_ BitVec 32)) (|n__2$main.next| (_ BitVec 32)) (|d__6$main| (_ BitVec 32)) (|m__8$main| (_ BitVec 32)) (|m__8$main.next| (_ BitVec 32)) (|s__4$main.next| (_ BitVec 32)) (|__RET__$main.next| (_ BitVec 32)) (|__RET__$main| (_ BitVec 32)) (|d__6$main.next| (_ BitVec 32)) (|__INLINE_TEMP__0$main.next| (_ BitVec 32)) (|__INLINE_TEMP__0$main| (_ BitVec 32)) (|cond__11$main.next| (_ BitVec 32)) (|cond__11$main| (_ BitVec 32)) (|__NONDET_INLINE_INIT__5__6$main#3| (_ BitVec 32)) (|__NONDET_INLINE_INIT__3__5$main#2| (_ BitVec 32)) (|__NONDET_INLINE_INIT__5__6$main#1| (_ BitVec 32)) (|__NONDET_INLINE_INIT__3__5$main#0| (_ BitVec 32)) (|.PC.3| Bool) (|.PC.2| Bool) (|.PC.1| Bool)) (=> (and (state |.PC.0| |.PC.1| |.PC.2| |.PC.3| |__RET__$main| |__INLINE_TEMP__0$main| |cond__11$main| |m__8$main| |d__6$main| |n__2$main| |s__4$main|) (let ((.def_15 (not .PC.2)))
(let ((.def_12 (not .PC.1)))
(let ((.def_10 (not .PC.0)))
(let ((.def_13 (and .def_10 .def_12)))
(let ((.def_16 (and .def_13 .def_15)))
(let ((.def_225 (and .def_16 .PC.3)))
(let ((.def_80 (not .PC.0.next)))
(let ((.def_56 (not .PC.1.next)))
(let ((.def_81 (and .def_56 .def_80)))
(let ((.def_60 (not .PC.2.next)))
(let ((.def_133 (and .def_60 .def_81)))
(let ((.def_134 (and .PC.3.next .def_133)))
(let ((.def_226 (and .def_134 .def_225)))
(let ((.def_201 (bvlshr n__2$main s__4$main)))
(let ((.def_202 (= n__2$main.next .def_201)))
(let ((.def_197 (bvand d__6$main n__2$main)))
(let ((.def_199 (bvadd m__8$main .def_197)))
(let ((.def_200 (= m__8$main.next .def_199)))
(let ((.def_203 (and .def_200 .def_202)))
(let ((.def_194 (= n__2$main.next (_ bv0 32))))
(let ((.def_216 (and .def_194 .def_203)))
(let ((.def_111 (= s__4$main.next s__4$main)))
(let ((.def_217 (and .def_111 .def_216)))
(let ((.def_45 (= __RET__$main __RET__$main.next)))
(let ((.def_218 (and .def_45 .def_217)))
(let ((.def_116 (= d__6$main.next d__6$main)))
(let ((.def_219 (and .def_116 .def_218)))
(let ((.def_49 (= __INLINE_TEMP__0$main __INLINE_TEMP__0$main.next)))
(let ((.def_220 (and .def_49 .def_219)))
(let ((.def_53 (= cond__11$main cond__11$main.next)))
(let ((.def_221 (and .def_53 .def_220)))
(let ((.def_162 (and .PC.1.next .PC.0.next)))
(let ((.def_163 (and .def_60 .def_162)))
(let ((.def_63 (not .PC.3.next)))
(let ((.def_164 (and .def_63 .def_163)))
(let ((.def_222 (and .def_164 .def_221)))
(let ((.def_211 (and .def_10 .PC.1)))
(let ((.def_212 (and .def_15 .def_211)))
(let ((.def_18 (not .PC.3)))
(let ((.def_213 (and .def_18 .def_212)))
(let ((.def_223 (and .def_213 .def_222)))
(let ((.def_195 (not .def_194)))
(let ((.def_204 (and .def_195 .def_203)))
(let ((.def_205 (and .def_111 .def_204)))
(let ((.def_206 (and .def_45 .def_205)))
(let ((.def_207 (and .def_116 .def_206)))
(let ((.def_208 (and .def_49 .def_207)))
(let ((.def_209 (and .def_53 .def_208)))
(let ((.def_147 (and .PC.1.next .def_80)))
(let ((.def_148 (and .def_60 .def_147)))
(let ((.def_149 (and .def_63 .def_148)))
(let ((.def_210 (and .def_149 .def_209)))
(let ((.def_214 (and .def_210 .def_213)))
(let ((.def_169 (bvult d__6$main n__2$main.next)))
(let ((.def_183 (not .def_169)))
(let ((.def_168 (= n__2$main.next m__8$main)))
(let ((.def_184 (and .def_168 .def_183)))
(let ((.def_185 (and .def_111 .def_184)))
(let ((.def_186 (and .def_45 .def_185)))
(let ((.def_95 (= m__8$main.next m__8$main)))
(let ((.def_187 (and .def_95 .def_186)))
(let ((.def_188 (and .def_116 .def_187)))
(let ((.def_189 (and .def_49 .def_188)))
(let ((.def_190 (and .def_53 .def_189)))
(let ((.def_82 (and .PC.2.next .def_81)))
(let ((.def_83 (and .def_63 .def_82)))
(let ((.def_191 (and .def_83 .def_190)))
(let ((.def_178 (and .PC.0 .PC.1)))
(let ((.def_179 (and .def_15 .def_178)))
(let ((.def_180 (and .def_18 .def_179)))
(let ((.def_192 (and .def_180 .def_191)))
(let ((.def_170 (and .def_168 .def_169)))
(let ((.def_171 (and .def_111 .def_170)))
(let ((.def_172 (and .def_45 .def_171)))
(let ((.def_173 (and .def_95 .def_172)))
(let ((.def_174 (and .def_116 .def_173)))
(let ((.def_175 (and .def_49 .def_174)))
(let ((.def_176 (and .def_53 .def_175)))
(let ((.def_58 (and .def_56 .PC.0.next)))
(let ((.def_61 (and .def_58 .def_60)))
(let ((.def_64 (and .def_61 .def_63)))
(let ((.def_177 (and .def_64 .def_176)))
(let ((.def_181 (and .def_177 .def_180)))
(let ((.def_138 (= n__2$main (_ bv0 32))))
(let ((.def_92 (= m__8$main.next (_ bv0 32))))
(let ((.def_155 (and .def_92 .def_138)))
(let ((.def_156 (and .def_111 .def_155)))
(let ((.def_157 (and .def_45 .def_156)))
(let ((.def_114 (= n__2$main.next n__2$main)))
(let ((.def_158 (and .def_114 .def_157)))
(let ((.def_159 (and .def_116 .def_158)))
(let ((.def_160 (and .def_49 .def_159)))
(let ((.def_161 (and .def_53 .def_160)))
(let ((.def_165 (and .def_161 .def_164)))
(let ((.def_124 (and .PC.0 .def_12)))
(let ((.def_151 (and .def_15 .def_124)))
(let ((.def_152 (and .def_18 .def_151)))
(let ((.def_166 (and .def_152 .def_165)))
(let ((.def_139 (not .def_138)))
(let ((.def_140 (and .def_92 .def_139)))
(let ((.def_141 (and .def_111 .def_140)))
(let ((.def_142 (and .def_45 .def_141)))
(let ((.def_143 (and .def_114 .def_142)))
(let ((.def_144 (and .def_116 .def_143)))
(let ((.def_145 (and .def_49 .def_144)))
(let ((.def_146 (and .def_53 .def_145)))
(let ((.def_150 (and .def_146 .def_149)))
(let ((.def_153 (and .def_150 .def_152)))
(let ((.def_127 (and .def_45 .def_111)))
(let ((.def_128 (and .def_114 .def_127)))
(let ((.def_129 (and .def_95 .def_128)))
(let ((.def_130 (and .def_116 .def_129)))
(let ((.def_131 (and .def_49 .def_130)))
(let ((.def_132 (and .def_53 .def_131)))
(let ((.def_135 (and .def_132 .def_134)))
(let ((.def_125 (and .PC.2 .def_124)))
(let ((.def_126 (and .def_18 .def_125)))
(let ((.def_136 (and .def_126 .def_135)))
(let ((.def_119 (and .def_58 .PC.2.next)))
(let ((.def_120 (and .def_63 .def_119)))
(let ((.def_103 (= cond__11$main.next (_ bv1 32))))
(let ((.def_104 (not .def_103)))
(let ((.def_100 (bvurem n__2$main d__6$main)))
(let ((.def_101 (= m__8$main.next .def_100)))
(let ((.def_105 (and .def_101 .def_104)))
(let ((.def_106 (not .def_105)))
(let ((.def_98 (= cond__11$main.next (_ bv0 32))))
(let ((.def_102 (or .def_98 .def_101)))
(let ((.def_107 (and .def_102 .def_106)))
(let ((.def_91 (= m__8$main d__6$main)))
(let ((.def_94 (not .def_91)))
(let ((.def_96 (and .def_94 .def_95)))
(let ((.def_93 (and .def_91 .def_92)))
(let ((.def_97 (or .def_93 .def_96)))
(let ((.def_108 (and .def_97 .def_107)))
(let ((.def_109 (and .def_98 .def_108)))
(let ((.def_112 (and .def_109 .def_111)))
(let ((.def_113 (and .def_45 .def_112)))
(let ((.def_115 (and .def_113 .def_114)))
(let ((.def_117 (and .def_115 .def_116)))
(let ((.def_118 (and .def_49 .def_117)))
(let ((.def_121 (and .def_118 .def_120)))
(let ((.def_87 (and .def_13 .PC.2)))
(let ((.def_88 (and .def_18 .def_87)))
(let ((.def_122 (and .def_88 .def_121)))
(let ((.def_71 (= s__4$main.next |__NONDET_INLINE_INIT__5__6$main#3|)))
(let ((.def_69 (= n__2$main.next |__NONDET_INLINE_INIT__3__5$main#2|)))
(let ((.def_72 (and .def_69 .def_71)))
(let ((.def_28 (bvshl (_ bv1 32) s__4$main.next)))
(let ((.def_30 (bvadd (_ bv4294967295 32) .def_28)))
(let ((.def_32 (= .def_30 d__6$main.next)))
(let ((.def_73 (and .def_32 .def_72)))
(let ((.def_35 (= d__6$main.next (_ bv0 32))))
(let ((.def_36 (not .def_35)))
(let ((.def_74 (and .def_36 .def_73)))
(let ((.def_39 (= n__2$main.next m__8$main.next)))
(let ((.def_75 (and .def_39 .def_74)))
(let ((.def_41 (bvult d__6$main.next n__2$main.next)))
(let ((.def_67 (not .def_41)))
(let ((.def_76 (and .def_67 .def_75)))
(let ((.def_77 (and .def_45 .def_76)))
(let ((.def_78 (and .def_49 .def_77)))
(let ((.def_79 (and .def_53 .def_78)))
(let ((.def_84 (and .def_79 .def_83)))
(let ((.def_19 (and .def_16 .def_18)))
(let ((.def_85 (and .def_19 .def_84)))
(let ((.def_25 (= s__4$main.next |__NONDET_INLINE_INIT__5__6$main#1|)))
(let ((.def_22 (= n__2$main.next |__NONDET_INLINE_INIT__3__5$main#0|)))
(let ((.def_26 (and .def_22 .def_25)))
(let ((.def_33 (and .def_26 .def_32)))
(let ((.def_37 (and .def_33 .def_36)))
(let ((.def_40 (and .def_37 .def_39)))
(let ((.def_42 (and .def_40 .def_41)))
(let ((.def_46 (and .def_42 .def_45)))
(let ((.def_50 (and .def_46 .def_49)))
(let ((.def_54 (and .def_50 .def_53)))
(let ((.def_65 (and .def_54 .def_64)))
(let ((.def_66 (and .def_19 .def_65)))
(let ((.def_86 (or .def_66 .def_85)))
(let ((.def_123 (or .def_86 .def_122)))
(let ((.def_137 (or .def_123 .def_136)))
(let ((.def_154 (or .def_137 .def_153)))
(let ((.def_167 (or .def_154 .def_166)))
(let ((.def_182 (or .def_167 .def_181)))
(let ((.def_193 (or .def_182 .def_192)))
(let ((.def_215 (or .def_193 .def_214)))
(let ((.def_224 (or .def_215 .def_223)))
(let ((.def_227 (or .def_224 .def_226)))
.def_227))))))))))))))))))))))))))))))))))))))))))))))))))))))))))))))))))))))))))))))))))))))))))))))))))))))))))))))))))))))))))))))))))))))))))))))))))))))))))))))))))))))))))))))))))))))))))))) (state |.PC.0.next| |.PC.1.next| |.PC.2.next| |.PC.3.next| |__RET__$main.next| |__INLINE_TEMP__0$main.next| |cond__11$main.next| |m__8$main.next| |d__6$main.next| |n__2$main.next| |s__4$main.next|))))
(assert (forall ((|.PC.0| Bool) (|.PC.0.next| Bool) (|.PC.1.next| Bool) (|.PC.2.next| Bool) (|.PC.3.next| Bool) (|s__4$main| (_ BitVec 32)) (|n__2$main| (_ BitVec 32)) (|n__2$main.next| (_ BitVec 32)) (|d__6$main| (_ BitVec 32)) (|m__8$main| (_ BitVec 32)) (|m__8$main.next| (_ BitVec 32)) (|s__4$main.next| (_ BitVec 32)) (|__RET__$main.next| (_ BitVec 32)) (|__RET__$main| (_ BitVec 32)) (|d__6$main.next| (_ BitVec 32)) (|__INLINE_TEMP__0$main.next| (_ BitVec 32)) (|__INLINE_TEMP__0$main| (_ BitVec 32)) (|cond__11$main.next| (_ BitVec 32)) (|cond__11$main| (_ BitVec 32)) (|__NONDET_INLINE_INIT__5__6$main#3| (_ BitVec 32)) (|__NONDET_INLINE_INIT__3__5$main#2| (_ BitVec 32)) (|__NONDET_INLINE_INIT__5__6$main#1| (_ BitVec 32)) (|__NONDET_INLINE_INIT__3__5$main#0| (_ BitVec 32)) (|.PC.3| Bool) (|.PC.2| Bool) (|.PC.1| Bool)) (=> (state |.PC.0| |.PC.1| |.PC.2| |.PC.3| |__RET__$main| |__INLINE_TEMP__0$main| |cond__11$main| |m__8$main| |d__6$main| |n__2$main| |s__4$main|) (let ((.def_15 (not .PC.2)))
(let ((.def_12 (not .PC.1)))
(let ((.def_10 (not .PC.0)))
(let ((.def_13 (and .def_10 .def_12)))
(let ((.def_16 (and .def_13 .def_15)))
(let ((.def_225 (and .def_16 .PC.3)))
(let ((.def_228 (not .def_225)))
.def_228))))))))))
(check-sat)
